(set-info :smt-lib-version 2.6)
(set-info :category "crafted")
(set-logic QF_FF)
(define-sort FF0 () (_ FiniteField 52435875175126190479447740508185965837690552500527637822603658699938581184513))
(declare-fun return_n2_alt () FF0)
(declare-fun mul_n24_alt () FF0)
(declare-fun mul_n31_alt () FF0)
(declare-fun mul_n17_alt () FF0)
(declare-fun mul_n30_alt () FF0)
(declare-fun mul_n5_alt () FF0)
(declare-fun mul_n29_alt () FF0)
(declare-fun b_n3_alt () FF0)
(declare-fun mul_n25_alt () FF0)
(declare-fun mul_n28_alt () FF0)
(declare-fun mul_n13_alt () FF0)
(declare-fun mul_n27_alt () FF0)
(declare-fun mul_n26_alt () FF0)
(declare-fun a_n4_alt () FF0)
(declare-fun d_n0_alt () FF0)
(declare-fun c_n1_alt () FF0)
(declare-fun mul_n23_alt () FF0)
(declare-fun mul_n21_alt () FF0)
(declare-fun mul_n22_alt () FF0)
(declare-fun mul_n20_alt () FF0)
(declare-fun mul_n19_alt () FF0)
(declare-fun mul_n12_alt () FF0)
(declare-fun mul_n18_alt () FF0)
(declare-fun mul_n16_alt () FF0)
(declare-fun mul_n15_alt () FF0)
(declare-fun mul_n9_alt () FF0)
(declare-fun mul_n14_alt () FF0)
(declare-fun mul_n10_alt () FF0)
(declare-fun mul_n11_alt () FF0)
(declare-fun mul_n8_alt () FF0)
(declare-fun mul_n7_alt () FF0)
(declare-fun mul_n6_alt () FF0)
(declare-fun return_n2 () FF0)
(declare-fun mul_n24 () FF0)
(declare-fun mul_n31 () FF0)
(declare-fun mul_n17 () FF0)
(declare-fun mul_n30 () FF0)
(declare-fun mul_n5 () FF0)
(declare-fun mul_n29 () FF0)
(declare-fun b_n3 () FF0)
(declare-fun mul_n25 () FF0)
(declare-fun mul_n28 () FF0)
(declare-fun mul_n13 () FF0)
(declare-fun mul_n27 () FF0)
(declare-fun mul_n26 () FF0)
(declare-fun a_n4 () FF0)
(declare-fun d_n0 () FF0)
(declare-fun c_n1 () FF0)
(declare-fun mul_n23 () FF0)
(declare-fun mul_n21 () FF0)
(declare-fun mul_n22 () FF0)
(declare-fun mul_n20 () FF0)
(declare-fun mul_n19 () FF0)
(declare-fun mul_n12 () FF0)
(declare-fun mul_n18 () FF0)
(declare-fun mul_n16 () FF0)
(declare-fun mul_n15 () FF0)
(declare-fun mul_n9 () FF0)
(declare-fun mul_n14 () FF0)
(declare-fun mul_n10 () FF0)
(declare-fun mul_n11 () FF0)
(declare-fun mul_n8 () FF0)
(declare-fun mul_n7 () FF0)
(declare-fun mul_n6 () FF0)
(assert 
  (let ((let0 return_n2_alt))
  (let ((let1 (as ff1 FF0)))
  (let ((let2 (as ff52435875175126190479447740508185965837690552500527637822603658699938581184512 FF0)))
  (let ((let3 mul_n24_alt))
  (let ((let4 (ff.mul let3 let2)))
  (let ((let5 (ff.add let4 let1)))
  (let ((let6 mul_n31_alt))
  (let ((let7 (ff.mul let6 let5)))
  (let ((let8 (= let7 let0)))
  (let ((let9 mul_n17_alt))
  (let ((let10 (ff.mul let9 let2)))
  (let ((let11 (ff.add let10 let1)))
  (let ((let12 mul_n30_alt))
  (let ((let13 (ff.mul let12 let11)))
  (let ((let14 (= let13 let6)))
  (let ((let15 mul_n5_alt))
  (let ((let16 mul_n29_alt))
  (let ((let17 (ff.mul let16 let15)))
  (let ((let18 (= let17 let12)))
  (let ((let19 b_n3_alt))
  (let ((let20 (ff.mul let19 let2)))
  (let ((let21 mul_n25_alt))
  (let ((let22 (ff.add let21 let20 let1)))
  (let ((let23 mul_n28_alt))
  (let ((let24 (ff.mul let23 let22)))
  (let ((let25 (= let24 let16)))
  (let ((let26 mul_n13_alt))
  (let ((let27 (ff.mul let26 let2)))
  (let ((let28 (ff.add let27 let1)))
  (let ((let29 mul_n27_alt))
  (let ((let30 (ff.mul let29 let28)))
  (let ((let31 (= let30 let23)))
  (let ((let32 mul_n26_alt))
  (let ((let33 (ff.mul let32 let9)))
  (let ((let34 (= let33 let29)))
  (let ((let35 a_n4_alt))
  (let ((let36 d_n0_alt))
  (let ((let37 (ff.mul let36 let35)))
  (let ((let38 (= let37 let32)))
  (let ((let39 (as ff2 FF0)))
  (let ((let40 (ff.mul let19 let39)))
  (let ((let41 (ff.add let40 let2)))
  (let ((let42 c_n1_alt))
  (let ((let43 (ff.mul let42 let41)))
  (let ((let44 (= let43 let21)))
  (let ((let45 (ff.add let20 let1)))
  (let ((let46 mul_n23_alt))
  (let ((let47 (ff.mul let46 let45)))
  (let ((let48 (= let47 let3)))
  (let ((let49 mul_n21_alt))
  (let ((let50 (ff.mul let49 let2)))
  (let ((let51 (ff.add let50 let1)))
  (let ((let52 mul_n22_alt))
  (let ((let53 (ff.mul let52 let51)))
  (let ((let54 (= let53 let46)))
  (let ((let55 (ff.mul let51 let9)))
  (let ((let56 (= let55 let52)))
  (let ((let57 mul_n20_alt))
  (let ((let58 (ff.mul let57 let26)))
  (let ((let59 (= let58 let49)))
  (let ((let60 mul_n19_alt))
  (let ((let61 (ff.mul let60 let11)))
  (let ((let62 (= let61 let57)))
  (let ((let63 mul_n12_alt))
  (let ((let64 mul_n18_alt))
  (let ((let65 (ff.mul let64 let63)))
  (let ((let66 (= let65 let60)))
  (let ((let67 mul_n16_alt))
  (let ((let68 (ff.mul let67 let35)))
  (let ((let69 (= let68 let9)))
  (let ((let70 (ff.mul let15 let2)))
  (let ((let71 (ff.add let70 let1)))
  (let ((let72 mul_n15_alt))
  (let ((let73 (ff.mul let72 let71)))
  (let ((let74 (= let73 let67)))
  (let ((let75 mul_n9_alt))
  (let ((let76 mul_n14_alt))
  (let ((let77 (ff.mul let76 let75)))
  (let ((let78 (= let77 let72)))
  (let ((let79 mul_n10_alt))
  (let ((let80 (ff.add let79 let19)))
  (let ((let81 (ff.mul let36 let80)))
  (let ((let82 (= let81 let76)))
  (let ((let83 (ff.mul let79 let2)))
  (let ((let84 (ff.add let83 let20 let1)))
  (let ((let85 (ff.mul let84 let63)))
  (let ((let86 (= let85 let26)))
  (let ((let87 (ff.mul let42 let2)))
  (let ((let88 (ff.add let87 let1)))
  (let ((let89 mul_n11_alt))
  (let ((let90 (ff.mul let89 let88)))
  (let ((let91 (= let90 let63)))
  (let ((let92 (ff.mul let75 let2)))
  (let ((let93 (ff.add let92 let1)))
  (let ((let94 (ff.mul let84 let93)))
  (let ((let95 (= let94 let89)))
  (let ((let96 (ff.add let70 let20 let1)))
  (let ((let97 (ff.mul let35 let96)))
  (let ((let98 (= let97 let79)))
  (let ((let99 mul_n8_alt))
  (let ((let100 (ff.mul let99 let71)))
  (let ((let101 (= let100 let75)))
  (let ((let102 mul_n7_alt))
  (let ((let103 (ff.mul let102 let45)))
  (let ((let104 (= let103 let99)))
  (let ((let105 mul_n6_alt))
  (let ((let106 (ff.mul let105 let35)))
  (let ((let107 (= let106 let102)))
  (let ((let108 (ff.mul let19 let42)))
  (let ((let109 (= let108 let105)))
  (let ((let110 (ff.mul let42 let19)))
  (let ((let111 (= let110 let15)))
  (let ((let112 (and let111 let109 let107 let104 let101 let98 let95 let91 let86 let82 let78 let74 let69 let66 let62 let59 let56 let54 let48 let44 let38 let34 let31 let25 let18 let14 let8)))
  (let ((let113 return_n2))
  (let ((let114 mul_n24))
  (let ((let115 (ff.mul let114 let2)))
  (let ((let116 (ff.add let115 let1)))
  (let ((let117 mul_n31))
  (let ((let118 (ff.mul let117 let116)))
  (let ((let119 (= let118 let113)))
  (let ((let120 mul_n17))
  (let ((let121 (ff.mul let120 let2)))
  (let ((let122 (ff.add let121 let1)))
  (let ((let123 mul_n30))
  (let ((let124 (ff.mul let123 let122)))
  (let ((let125 (= let124 let117)))
  (let ((let126 mul_n5))
  (let ((let127 mul_n29))
  (let ((let128 (ff.mul let127 let126)))
  (let ((let129 (= let128 let123)))
  (let ((let130 b_n3))
  (let ((let131 (ff.mul let130 let2)))
  (let ((let132 mul_n25))
  (let ((let133 (ff.add let132 let131 let1)))
  (let ((let134 mul_n28))
  (let ((let135 (ff.mul let134 let133)))
  (let ((let136 (= let135 let127)))
  (let ((let137 mul_n13))
  (let ((let138 (ff.mul let137 let2)))
  (let ((let139 (ff.add let138 let1)))
  (let ((let140 mul_n27))
  (let ((let141 (ff.mul let140 let139)))
  (let ((let142 (= let141 let134)))
  (let ((let143 mul_n26))
  (let ((let144 (ff.mul let143 let120)))
  (let ((let145 (= let144 let140)))
  (let ((let146 a_n4))
  (let ((let147 d_n0))
  (let ((let148 (ff.mul let147 let146)))
  (let ((let149 (= let148 let143)))
  (let ((let150 (ff.mul let130 let39)))
  (let ((let151 (ff.add let150 let2)))
  (let ((let152 c_n1))
  (let ((let153 (ff.mul let152 let151)))
  (let ((let154 (= let153 let132)))
  (let ((let155 (ff.add let131 let1)))
  (let ((let156 mul_n23))
  (let ((let157 (ff.mul let156 let155)))
  (let ((let158 (= let157 let114)))
  (let ((let159 mul_n21))
  (let ((let160 (ff.mul let159 let2)))
  (let ((let161 (ff.add let160 let1)))
  (let ((let162 mul_n22))
  (let ((let163 (ff.mul let162 let161)))
  (let ((let164 (= let163 let156)))
  (let ((let165 (ff.mul let161 let120)))
  (let ((let166 (= let165 let162)))
  (let ((let167 mul_n20))
  (let ((let168 (ff.mul let167 let137)))
  (let ((let169 (= let168 let159)))
  (let ((let170 mul_n19))
  (let ((let171 (ff.mul let170 let122)))
  (let ((let172 (= let171 let167)))
  (let ((let173 mul_n12))
  (let ((let174 mul_n18))
  (let ((let175 (ff.mul let174 let173)))
  (let ((let176 (= let175 let170)))
  (let ((let177 mul_n16))
  (let ((let178 (ff.mul let177 let146)))
  (let ((let179 (= let178 let120)))
  (let ((let180 (ff.mul let126 let2)))
  (let ((let181 (ff.add let180 let1)))
  (let ((let182 mul_n15))
  (let ((let183 (ff.mul let182 let181)))
  (let ((let184 (= let183 let177)))
  (let ((let185 mul_n9))
  (let ((let186 mul_n14))
  (let ((let187 (ff.mul let186 let185)))
  (let ((let188 (= let187 let182)))
  (let ((let189 mul_n10))
  (let ((let190 (ff.add let189 let130)))
  (let ((let191 (ff.mul let147 let190)))
  (let ((let192 (= let191 let186)))
  (let ((let193 (ff.mul let189 let2)))
  (let ((let194 (ff.add let193 let131 let1)))
  (let ((let195 (ff.mul let194 let173)))
  (let ((let196 (= let195 let137)))
  (let ((let197 (ff.mul let152 let2)))
  (let ((let198 (ff.add let197 let1)))
  (let ((let199 mul_n11))
  (let ((let200 (ff.mul let199 let198)))
  (let ((let201 (= let200 let173)))
  (let ((let202 (ff.mul let185 let2)))
  (let ((let203 (ff.add let202 let1)))
  (let ((let204 (ff.mul let194 let203)))
  (let ((let205 (= let204 let199)))
  (let ((let206 (ff.add let180 let131 let1)))
  (let ((let207 (ff.mul let146 let206)))
  (let ((let208 (= let207 let189)))
  (let ((let209 mul_n8))
  (let ((let210 (ff.mul let209 let181)))
  (let ((let211 (= let210 let185)))
  (let ((let212 mul_n7))
  (let ((let213 (ff.mul let212 let155)))
  (let ((let214 (= let213 let209)))
  (let ((let215 mul_n6))
  (let ((let216 (ff.mul let215 let146)))
  (let ((let217 (= let216 let212)))
  (let ((let218 (ff.mul let130 let152)))
  (let ((let219 (= let218 let215)))
  (let ((let220 (ff.mul let152 let130)))
  (let ((let221 (= let220 let126)))
  (let ((let222 (and let221 let219 let217 let214 let211 let208 let205 let201 let196 let192 let188 let184 let179 let176 let172 let169 let166 let164 let158 let154 let149 let145 let142 let136 let129 let125 let119)))
  (let ((let223 (= let113 let0)))
  (let ((let224 (not let223)))
  (let ((let225 (= let147 let36)))
  (let ((let226 (= let130 let19)))
  (let ((let227 (= let146 let35)))
  (let ((let228 (= let152 let42)))
  (let ((let229 (and let228 let227 let226 let225)))
  (let ((let230 (and let229 let224 let222 let112)))
  let230
)))))))))))))))))))))))))))))))))))))))))))))))))))))))))))))))))))))))))))))))))))))))))))))))))))))))))))))))))))))))))))))))))))))))))))))))))))))))))))))))))))))))))))))))))))))))))))))))))))))))))))))))))))))))))))))))))))))))
)
(check-sat)
